
  32    1
  10

   0   0   9 2 3 4 5 6 7 8 14 16 
   6   9   5 18 17 12 10 9 
   8   4   6 23 17 13 12 11 10 
   7  10   3 17 11 9 
   7   7   8 31 23 20 18 17 15 13 12 
   7   7   4 23 17 15 11 
  10   7   5 31 23 18 17 15 
   4   5   6 31 30 22 20 18 17 
   7  10   4 23 20 15 13 
  10  10   7 31 30 29 28 27 25 21 
   4   7   3 31 20 18 
   8   6   5 29 28 27 22 21 
   5  10   4 29 28 27 19 
   4   5   4 31 25 23 21 
   9  10   3 29 22 19 
   9  10   3 28 27 19 
   9   5   2 27 19 
   3   6   5 29 28 26 25 24 
  10   8   2 25 21 
   9  10   2 25 21 
   2  10   2 26 24 
  10   9   2 25 24 
   4  10   2 30 27 
   8   7   1 32
   9   7   1 32
   6  10   1 32
   8  10   1 32
   1   7   1 32
   3   7   1 32
   8   8   1 32
   6   9   1 32
   0   0   0 
